Problem:    
Rows:       256
Columns:    89 (72 integer, 72 binary)
Non-zeros:  800
Status:     INTEGER OPTIMAL
Objective:  value = 4.557972 (MINimum)

   No.   Row name        Activity     Lower bound   Upper bound
------ ------------    ------------- ------------- -------------
     1 r.5                   4.55797             0               
     2 r.6                  -998.826      -999.341               
     3 r.7                   1004.56             0               
     4 r.8                  -997.329      -998.017               
     5 r.9                   1004.56             0               
     6 r.10                 -996.751      -999.165               
     7 r.11                  4.55797             0               
     8 r.12                   3.2492      -997.417               
     9 r.13                  1004.56             0               
    10 r.14                 -998.111       -999.12               
    11 r.15                  4.55797             0               
    12 r.16                   3.2492      -997.925               
    13 r.17                  1004.56             0               
    14 r.18                 -998.991      -999.506               
    15 r.19                  4.55797             0               
    16 r.20                 -998.179      -998.693               
    17 r.21                  1004.56             0               
    18 r.22                 -997.585      -999.474               
    19 r.23                  4.55797             0               
    20 r.24                   2.6712      -998.881               
    21 r.25                  4.55797             0               
    22 r.26                 0.514474      -999.255               
    23 r.27                  1004.56             0               
    24 r.28                 -999.486      -999.486               
    25 r.29                  4.55797             0               
    26 r.30                 -996.158       -998.83               
    27 r.31                  1004.56             0               
    28 r.32                 -995.442      -998.113               
    29 r.33                  1004.56             0               
    30 r.34                 -995.442      -998.691               
    31 r.35                  4.55797             0               
    32 r.36                  4.55797      -997.923               
    33 r.37                        1             1             = 
    34 r.38                        1             1             = 
    35 r.39                        1             1             = 
    36 r.40                        1             1             = 
    37 r.41                        1             1             = 
    38 r.42                        1             1             = 
    39 r.43                        1             1             = 
    40 r.44                        1             1             = 
    41 r.45                     1001             2               
    42 r.46                    -1001         -1001               
    43 r.47                  3002.08      -999.165               
    44 r.48                     1001             2               
    45 r.49                    -1001         -1001               
    46 r.50                  2000.58      -997.417               
    47 r.51                     1001             2               
    48 r.52                    -1001         -1001               
    49 r.53                  3000.71       -999.12               
    50 r.54                     1001             2               
    51 r.55                    -1001         -1001               
    52 r.56                  2000.58      -997.925               
    53 r.57                     1001             2               
    54 r.58                    -1001         -1001               
    55 r.59                  2999.83      -999.506               
    56 r.60                     1001             2               
    57 r.61                    -1001         -1001               
    58 r.62                   999.15      -998.693               
    59 r.63                     1001             2               
    60 r.64                    -1001         -1001               
    61 r.65                  3001.24      -999.474               
    62 r.66                     1001             2               
    63 r.67                    -1001         -1001               
    64 r.68                     2000      -998.881               
    65 r.69                 -999.341      -999.341               
    66 r.70                 -997.843      -998.017               
    67 r.71                 -999.341      -999.341               
    68 r.72                 -997.843      -998.017               
    69 r.73                  2.66796       -998.83               
    70 r.74                  3.38422      -998.113               
    71 r.75                  -998.83       -998.83               
    72 r.76                 -998.113      -998.113               
    73 r.77                     1001             2               
    74 r.78                    -1001         -1001               
    75 r.79                  3003.38      -998.691               
    76 r.80                     1001             2               
    77 r.81                    -1001         -1001               
    78 r.82                  2001.89      -997.923               
    79 r.83                     1001             2               
    80 r.84                    -1001         -1001               
    81 r.85                  997.925      0.659275               
    82 r.86                     1001             2               
    83 r.87                    -1001         -1001               
    84 r.88                  1999.42       1.98317               
    85 r.89                        2             2               
    86 r.90                       -2         -1001               
    87 r.91                 -1.36058       -999.12               
    88 r.92                     1000             2               
    89 r.93                    -1000         -1001               
    90 r.94                     2000      -997.925               
    91 r.95                        2             2               
    92 r.96                       -2         -1001               
    93 r.97                 -2.24059      -999.506               
    94 r.98                     1000             2               
    95 r.99                    -1000         -1001               
    96 r.100                 998.572      -998.693               
    97 r.101                       2             2               
    98 r.102                      -2         -1001               
    99 r.103               -0.834556      -999.474               
   100 r.104                    1000             2               
   101 r.105                   -1000         -1001               
   102 r.106                 1999.42      -998.881               
   103 r.107                -997.265      -999.165               
   104 r.108                 2.73472      -997.417               
   105 r.109                -997.265      -999.165               
   106 r.110                 2.73472      -997.417               
   107 r.111                    1001             2               
   108 r.112                   -1001         -1001               
   109 r.113                 1000.59       -998.83               
   110 r.114                    1001             2               
   111 r.115                   -1001         -1001               
   112 r.116                 2001.31      -998.113               
   113 r.117                -998.691      -998.691               
   114 r.118                 1.30877      -997.923               
   115 r.119                -998.691      -998.691               
   116 r.120                 1.30877      -997.923               
   117 r.121                    1001             2               
   118 r.122                   -1001         -1001               
   119 r.123                 999.285      0.659275               
   120 r.124                    1001             2               
   121 r.125                   -1001         -1001               
   122 r.126                 1999.42       1.98317               
   123 r.127                       2             2               
   124 r.128                      -2         -1001               
   125 r.129                 1.36058      0.834556               
   126 r.130                    1000             2               
   127 r.131                   -1000         -1001               
   128 r.132                    2000       2.58313               
   129 r.133                 -999.12       -999.12               
   130 r.134                 2.24059      -997.925               
   131 r.135                0.067542       -999.12               
   132 r.136                 1001.43      -997.925               
   133 r.137                       2             2               
   134 r.138                      -2         -1001               
   135 r.139                -999.474      -999.474               
   136 r.140                    1000             2               
   137 r.141                   -1000         -1001               
   138 r.142                 1999.42      -998.881               
   139 r.143                -998.626       -999.12               
   140 r.144                 2.73472      -997.925               
   141 r.145                -998.626       -999.12               
   142 r.146                 2.73472      -997.925               
   143 r.147                    1001             2               
   144 r.148                   -1001         -1001               
   145 r.149                 1001.95       -998.83               
   146 r.150                    1001             2               
   147 r.151                   -1001         -1001               
   148 r.152                 2001.31      -998.113               
   149 r.153                -997.331      -998.691               
   150 r.154                 2.66936      -997.923               
   151 r.155                -998.691      -998.691               
   152 r.156                 1.30877      -997.923               
   153 r.157                    1001             2               
   154 r.158                   -1001         -1001               
   155 r.159                 1000.17      0.659275               
   156 r.160                    1001             2               
   157 r.161                   -1001         -1001               
   158 r.162                 3000.85       1.98317               
   159 r.163                       2             2               
   160 r.164                      -2         -1001               
   161 r.165                 2.24059      0.834556               
   162 r.166                    1000             2               
   163 r.167                   -1000         -1001               
   164 r.168                 3001.43       2.58313               
   165 r.169                       2             2               
   166 r.170                      -2         -1001               
   167 r.171                -998.594      -999.474               
   168 r.172                    1000             2               
   169 r.173                   -1000         -1001               
   170 r.174                 3000.85      -998.881               
   171 r.175                -999.506      -999.506               
   172 r.176                -998.693      -998.693               
   173 r.177                -999.506      -999.506               
   174 r.178                -998.693      -998.693               
   175 r.179                    1001             2               
   176 r.180                   -1001         -1001               
   177 r.181                 1002.83       -998.83               
   178 r.182                    1001             2               
   179 r.183                   -1001         -1001               
   180 r.184                 3002.74      -998.113               
   181 r.185                -996.451      -998.691               
   182 r.186                 3.54937      -997.923               
   183 r.187                  2.7369      -998.691               
   184 r.188                 1002.74      -997.923               
   185 r.189                    1001             2               
   186 r.190                   -1001         -1001               
   187 r.191                 998.759      0.659275               
   188 r.192                    1001             2               
   189 r.193                   -1001         -1001               
   190 r.194                    2000       1.98317               
   191 r.195                       2             2               
   192 r.196                      -2         -1001               
   193 r.197                0.834556      0.834556               
   194 r.198                    1000             2               
   195 r.199                   -1000         -1001               
   196 r.200                 2000.58       2.58313               
   197 r.201                       2             2               
   198 r.202                      -2         -1001               
   199 r.203                 999.474      0.880014               
   200 r.204                    1000             2               
   201 r.205                   -1000         -1001               
   202 r.206                 2000.58       2.07451               
   203 r.207                       2             2               
   204 r.208                      -2         -1001               
   205 r.209                 998.594      0.494128               
   206 r.210                    1000             2               
   207 r.211                   -1000         -1001               
   208 r.212                  999.15        1.3066               
   209 r.213                  -998.1      -999.474               
   210 r.214                 2.15673      -998.881               
   211 r.215                  -998.1      -999.474               
   212 r.216                 2.15673      -998.881               
   213 r.217                -998.573       -998.83               
   214 r.218                -997.857      -998.113               
   215 r.219                 -998.83       -998.83               
   216 r.220                -998.113      -998.113               
   217 r.221                -997.857      -998.691               
   218 r.222                 2.14333      -997.923               
   219 r.223                -998.113      -998.691               
   220 r.224                 1.88677      -997.923               
   221 r.225                    1001             2               
   222 r.226                   -1001         -1001               
   223 r.227                 2999.41      0.834556               
   224 r.228                    1001             2               
   225 r.229                   -1001         -1001               
   226 r.230                 1998.69       2.58313               
   227 r.231                    1001             2               
   228 r.232                   -1001         -1001               
   229 r.233                 2998.05      0.880014               
   230 r.234                    1001             2               
   231 r.235                   -1001         -1001               
   232 r.236                 1998.69       2.07451               
   233 r.237                    1001             2               
   234 r.238                   -1001         -1001               
   235 r.239                 2997.17      0.494128               
   236 r.240                    1001             2               
   237 r.241                   -1001         -1001               
   238 r.242                 997.263        1.3066               
   239 r.243                    1001             2               
   240 r.244                   -1001         -1001               
   241 r.245                 3000.72      -998.691               
   242 r.246                    1001             2               
   243 r.247                   -1001         -1001               
   244 r.248                    2000      -997.923               
   245 r.249                    1001             2               
   246 r.250                   -1001         -1001               
   247 r.251                 996.616      0.659275               
   248 r.252                    1001             2               
   249 r.253                   -1001         -1001               
   250 r.254                 1998.11       1.98317               
   251 r.255                    1001             2               
   252 r.256                   -1001         -1001               
   253 r.257                 999.284        1.1705               
   254 r.258                    1001             2               
   255 r.259                   -1001         -1001               
   256 r.260                    2000       1.88677               

   No. Column name       Activity     Lower bound   Upper bound
------ ------------    ------------- ------------- -------------
     1 tt                    4.55797             0               
     2 s_1_1        *              0             0             1 
     3 t_1_1                 1003.38             0               
     4 s_1_7        *              0             0             1 
     5 s_2_1        *              1             0             1 
     6 t_2_1                 1.88677             0               
     7 s_2_7        *              1             0             1 
     8 s_1_2        *              1             0             1 
     9 t_1_2                 1.30877             0               
    10 s_1_8        *              1             0             1 
    11 s_2_2        *              0             0             1 
    12 t_2_2                 1.30877             0               
    13 s_2_8        *              0             0             1 
    14 s_1_3        *              1             0             1 
    15 t_1_3                 2.66936             0               
    16 s_2_3        *              0             0             1 
    17 t_2_3                 1.30877             0               
    18 s_1_4        *              1             0             1 
    19 t_1_4                 3.54937             0               
    20 s_2_4        *              0             0             1 
    21 t_2_4                 1002.74             0               
    22 s_1_5        *              1             0             1 
    23 t_1_5                 2.14333             0               
    24 s_2_5        *              0             0             1 
    25 t_2_5                 1.88677             0               
    26 s_1_6        *              0             0             1 
    27 t_1_6                  4.0435             0               
    28 s_2_6        *              1             0             1 
    29 t_2_6                  4.0435             0               
    30 t_1_7                 1000.72             0               
    31 t_2_7                       0             0               
    32 t_1_8                       0             0               
    33 t_2_8                       0             0               
    34 r_1_1_2      *              1             0             1 
    35 u_1_1_2      *              0             0             1 
    36 r_2_1_2      *              1             0             1 
    37 u_2_1_2      *              0             0             1 
    38 r_1_1_3      *              1             0             1 
    39 u_1_1_3      *              0             0             1 
    40 r_2_1_3      *              1             0             1 
    41 u_2_1_3      *              0             0             1 
    42 r_1_1_4      *              1             0             1 
    43 u_1_1_4      *              0             0             1 
    44 r_2_1_4      *              1             0             1 
    45 u_2_1_4      *              0             0             1 
    46 r_1_1_5      *              1             0             1 
    47 u_1_1_5      *              0             0             1 
    48 r_2_1_5      *              1             0             1 
    49 u_2_1_5      *              0             0             1 
    50 r_1_1_8      *              1             0             1 
    51 u_1_1_8      *              0             0             1 
    52 r_2_1_8      *              1             0             1 
    53 u_2_1_8      *              0             0             1 
    54 r_1_2_3      *              0             0             1 
    55 u_1_2_3      *              0             0             1 
    56 r_2_2_3      *              1             0             1 
    57 u_2_2_3      *              0             0             1 
    58 r_1_2_4      *              0             0             1 
    59 u_1_2_4      *              0             0             1 
    60 r_2_2_4      *              1             0             1 
    61 u_2_2_4      *              0             0             1 
    62 r_1_2_5      *              0             0             1 
    63 u_1_2_5      *              0             0             1 
    64 r_2_2_5      *              1             0             1 
    65 u_2_2_5      *              0             0             1 
    66 r_1_2_7      *              1             0             1 
    67 u_1_2_7      *              0             0             1 
    68 r_2_2_7      *              1             0             1 
    69 u_2_2_7      *              0             0             1 
    70 r_1_3_5      *              0             0             1 
    71 u_1_3_5      *              1             0             1 
    72 r_2_3_5      *              1             0             1 
    73 u_2_3_5      *              0             0             1 
    74 r_1_3_7      *              1             0             1 
    75 u_1_3_7      *              0             0             1 
    76 r_2_3_7      *              1             0             1 
    77 u_2_3_7      *              0             0             1 
    78 r_1_4_5      *              0             0             1 
    79 u_1_4_5      *              1             0             1 
    80 r_2_4_5      *              1             0             1 
    81 u_2_4_5      *              0             0             1 
    82 r_1_4_7      *              1             0             1 
    83 u_1_4_7      *              0             0             1 
    84 r_2_4_7      *              1             0             1 
    85 u_2_4_7      *              0             0             1 
    86 r_1_7_8      *              1             0             1 
    87 u_1_7_8      *              0             0             1 
    88 r_2_7_8      *              1             0             1 
    89 u_2_7_8      *              0             0             1 

Integer feasibility conditions:

KKT.PE: max.abs.err = 4.55e-13 on row 61
        max.rel.err = 7.58e-17 on row 229
        High quality

KKT.PB: max.abs.err = 0.00e+00 on row 0
        max.rel.err = 0.00e+00 on row 0
        High quality

End of output
